30 5
47 71 91 51 72 81 44 29 95 23 34 51 72 28 51 36 97 107 51 64 48 100 96 56 74 62 74 45 57 98
60 62 98 54 66 75 25 43 98 48 11 69 76 35 68 10 89 80 43 36 45 109 74 54 77 56 69 62 61 100
61 69 94 53 76 84 30 31 106 23 24 72 86 30 43 9 86 86 64 36 48 88 71 42 79 58 55 50 69 100
63 54 104 64 69 83 17 17 81 50 27 47 74 45 72 21 84 80 59 59 48 90 89 40 75 54 58 41 68 93
69 58 90 67 71 67 16 26 82 50 10 55 77 17 52 13 103 103 66 35 44 86 93 58 75 61 64 51 71 94
